(set-info :source |printed by MathSAT|)
(declare-fun call_greycounter.b () Bool)
(declare-fun call_intloopcounter.flby () Int)
(declare-fun d () Bool)
(declare-fun call_intloopcounter.out () Bool)
(declare-fun _OK_ () Bool)
(declare-fun call_greycounter.out () Bool)
(declare-fun call_greycounter.flby2 () Bool)
(declare-fun call_greycounter.a () Bool)
(declare-fun call_greycounter.flby () Bool)
(declare-fun call_intloopcounter.time () Int)
(declare-fun b () Bool)
(define-fun .def_129 () Bool (= call_intloopcounter.flby 0))
(define-fun .def_127 () Bool (not call_greycounter.flby2))
(define-fun .def_126 () Bool (not call_greycounter.flby))
(define-fun .def_128 () Bool (and .def_126 .def_127))
(define-fun .def_130 () Bool (and .def_128 .def_129))
(define-fun .def_124 () Bool (= call_intloopcounter.time call_intloopcounter.flby))
(define-fun .def_120 () Bool (= call_intloopcounter.time 2))
(define-fun .def_121 () Bool (= call_intloopcounter.out .def_120))
(define-fun .def_117 () Bool (= call_greycounter.b call_greycounter.flby2))
(define-fun .def_114 () Bool (= call_greycounter.a call_greycounter.flby))
(define-fun .def_110 () Bool (and call_greycounter.a call_greycounter.b))
(define-fun .def_111 () Bool (= call_greycounter.out .def_110))
(define-fun .def_106 () Bool (= d call_intloopcounter.out))
(define-fun .def_103 () Bool (= b call_greycounter.out))
(define-fun .def_100 () Bool (= b d))
(define-fun .def_101 () Bool (= _OK_ .def_100))
(define-fun .def_104 () Bool (and .def_101 .def_103))
(define-fun .def_107 () Bool (and .def_104 .def_106))
(define-fun .def_112 () Bool (and .def_107 .def_111))
(define-fun .def_115 () Bool (and .def_112 .def_114))
(define-fun .def_118 () Bool (and .def_115 .def_117))
(define-fun .def_122 () Bool (and .def_118 .def_121))
(define-fun .def_125 () Bool (and .def_122 .def_124))
(define-fun .def_131 () Bool (and .def_125 .def_130))
(assert .def_131)
